NAME: line_54_44
TYPE: TSP
COMMENT: srandom_54_44
DIMENSION: 54
EDGE_WEIGHT_TYPE: EUC_2D
NODE_COORD_SECTION
1 1512 4118
2 1015 1028
3 547 1481
4 818 2845
5 1406 1507
6 1805 3302
7 4154 71
8 213 1472
9 427 2519
10 858 4753
11 2086 4453
12 4415 1861
13 1268 4095
14 1643 720
15 1191 3249
16 897 3006
17 343 247
18 777 2107
19 2264 3871
20 3 4337
21 3647 662
22 2637 3889
23 2249 4807
24 2878 241
25 2173 2250
26 4387 2520
27 4785 2906
28 3998 3154
29 23 2500
30 56 2097
31 133 1750
32 4754 3789
33 1509 241
34 1962 371
35 157 850
36 83 880
37 366 384
38 728 1142
39 1198 4497
40 4533 2865
41 1859 4828
42 2543 4518
43 3928 623
44 2730 3839
45 1678 396
46 3042 1848
47 2440 297
48 449 1038
49 3631 4533
50 2872 3986
51 3262 2708
52 2142 778
53 487 4195
54 2370 3961
